p edge 90 855 73
e 25 89
e 25 66
e 25 61
e 25 65
e 25 51
e 25 60
e 25 28
e 25 37
e 25 46
e 25 55
e 25 64
e 25 32
e 25 31
e 25 8
e 25 68
e 25 81
e 25 76
e 25 43
e 25 9
e 89 36
e 89 66
e 89 85
e 89 58
e 89 50
e 89 1
e 89 61
e 89 53
e 89 72
e 89 7
e 89 37
e 89 81
e 89 32
e 89 65
e 89 54
e 89 46
e 89 35
e 89 11
e 37 54
e 37 72
e 37 71
e 37 22
e 37 36
e 37 20
e 37 1
e 37 4
e 37 61
e 37 46
e 37 55
e 37 59
e 37 10
e 37 40
e 37 13
e 37 5
e 37 16
e 54 51
e 54 52
e 54 77
e 54 86
e 54 67
e 54 62
e 54 71
e 54 28
e 54 33
e 54 75
e 54 31
e 54 70
e 54 79
e 54 12
e 54 83
e 54 15
e 54 59
e 36 75
e 36 42
e 36 51
e 36 60
e 36 22
e 36 41
e 36 14
e 36 45
e 36 20
e 36 15
e 36 63
e 36 81
e 36 76
e 36 53
e 36 29
e 36 16
e 36 35
e 56 67
e 56 6
e 56 23
e 56 53
e 56 75
e 56 34
e 56 45
e 56 83
e 56 48
e 56 78
e 56 18
e 56 68
e 56 2
e 56 52
e 56 5
e 56 8
e 56 86
e 56 11
e 56 30
e 67 90
e 67 32
e 67 5
e 67 65
e 67 57
e 67 19
e 67 3
e 67 60
e 67 52
e 67 74
e 67 44
e 67 47
e 67 39
e 67 50
e 67 42
e 67 45
e 67 77
e 48 63
e 48 72
e 48 58
e 48 85
e 48 7
e 48 52
e 48 29
e 48 10
e 48 70
e 48 69
e 48 78
e 48 30
e 48 64
e 48 73
e 48 22
e 48 44
e 48 12
e 48 42
e 63 84
e 63 18
e 63 29
e 63 74
e 63 59
e 63 21
e 63 13
e 63 11
e 63 87
e 63 3
e 63 33
e 63 14
e 63 17
e 63 58
e 63 31
e 63 15
e 63 4
e 19 27
e 19 4
e 19 87
e 19 17
e 19 82
e 19 81
e 19 90
e 19 76
e 19 44
e 19 21
e 19 29
e 19 38
e 19 66
e 19 70
e 19 5
e 19 65
e 19 42
e 19 8
e 27 11
e 27 72
e 27 35
e 27 53
e 27 62
e 27 71
e 27 39
e 27 66
e 27 9
e 27 29
e 27 47
e 27 26
e 27 7
e 27 10
e 27 88
e 27 74
e 27 28
e 27 46
e 16 40
e 16 26
e 16 7
e 16 68
e 16 81
e 16 35
e 16 71
e 16 21
e 16 8
e 16 33
e 16 11
e 16 75
e 16 70
e 16 65
e 16 51
e 16 9
e 16 1
e 40 77
e 40 90
e 40 49
e 40 53
e 40 80
e 40 5
e 40 33
e 40 35
e 40 28
e 40 23
e 40 79
e 40 65
e 40 83
e 40 68
e 40 2
e 40 32
e 40 34
e 60 65
e 60 3
e 60 22
e 60 52
e 60 28
e 60 50
e 60 87
e 60 15
e 60 81
e 60 26
e 60 71
e 60 10
e 60 2
e 60 51
e 60 43
e 60 80
e 65 52
e 65 77
e 65 81
e 65 12
e 65 61
e 65 66
e 65 64
e 65 7
e 65 46
e 65 78
e 65 8
e 65 41
e 29 59
e 29 4
e 29 7
e 29 43
e 29 24
e 29 52
e 29 47
e 29 33
e 29 42
e 29 46
e 29 31
e 29 28
e 29 82
e 29 12
e 59 18
e 59 68
e 59 41
e 59 51
e 59 13
e 59 8
e 59 38
e 59 47
e 59 3
e 59 23
e 59 55
e 59 17
e 59 88
e 59 7
e 59 50
e 68 78
e 68 51
e 68 13
e 68 24
e 68 66
e 68 11
e 68 77
e 68 41
e 68 22
e 68 61
e 68 17
e 68 12
e 68 80
e 68 83
e 78 43
e 78 33
e 78 80
e 78 66
e 78 30
e 78 22
e 78 14
e 78 55
e 78 88
e 78 83
e 78 9
e 78 39
e 78 70
e 78 26
e 78 76
e 72 70
e 72 8
e 72 75
e 72 84
e 72 79
e 72 49
e 72 83
e 72 22
e 72 6
e 72 14
e 72 73
e 72 61
e 72 86
e 72 81
e 72 26
e 18 58
e 18 76
e 18 11
e 18 57
e 18 24
e 18 90
e 18 85
e 18 66
e 18 52
e 18 70
e 18 4
e 18 83
e 18 69
e 18 10
e 18 5
e 18 64
e 1 6
e 1 24
e 1 90
e 1 57
e 1 79
e 1 28
e 1 55
e 1 23
e 1 32
e 1 9
e 1 83
e 1 87
e 1 64
e 1 30
e 1 39
e 1 34
e 6 83
e 6 42
e 6 28
e 6 55
e 6 45
e 6 13
e 6 8
e 6 12
e 6 85
e 6 35
e 6 71
e 6 30
e 6 38
e 6 24
e 6 33
e 6 10
e 10 73
e 10 82
e 10 50
e 10 45
e 10 81
e 10 12
e 10 15
e 10 2
e 10 90
e 10 71
e 10 75
e 10 79
e 10 22
e 73 49
e 73 51
e 73 46
e 73 8
e 73 76
e 73 38
e 73 69
e 73 41
e 73 22
e 73 23
e 73 53
e 73 9
e 73 84
e 73 88
e 73 70
e 73 82
e 82 32
e 82 87
e 82 13
e 82 24
e 82 52
e 82 43
e 82 76
e 82 49
e 82 11
e 82 17
e 82 47
e 82 31
e 82 4
e 82 7
e 82 75
e 24 86
e 24 58
e 24 53
e 24 39
e 24 34
e 24 80
e 24 88
e 24 47
e 24 3
e 24 74
e 24 22
e 24 46
e 24 9
e 49 50
e 49 87
e 49 86
e 49 38
e 49 3
e 49 22
e 49 52
e 49 31
e 49 75
e 49 23
e 49 70
e 49 4
e 49 15
e 49 74
e 49 69
e 11 28
e 11 23
e 11 50
e 11 31
e 11 17
e 11 62
e 11 30
e 11 43
e 11 20
e 11 38
e 11 51
e 28 3
e 28 61
e 28 70
e 28 69
e 28 9
e 28 87
e 28 21
e 28 53
e 28 47
e 28 33
e 74 75
e 74 52
e 74 14
e 74 31
e 74 12
e 74 42
e 74 4
e 74 86
e 74 2
e 74 21
e 74 62
e 74 38
e 74 30
e 74 80
e 75 76
e 75 69
e 75 15
e 75 64
e 75 79
e 75 62
e 75 43
e 75 5
e 75 90
e 75 33
e 7 85
e 7 44
e 7 47
e 7 84
e 7 79
e 7 83
e 7 23
e 7 50
e 7 9
e 7 22
e 7 12
e 85 88
e 85 57
e 85 43
e 85 44
e 85 76
e 85 77
e 85 69
e 85 30
e 85 61
e 85 23
e 85 42
e 85 83
e 85 14
e 85 55
e 26 35
e 26 53
e 26 13
e 26 80
e 26 20
e 26 51
e 26 46
e 26 32
e 26 17
e 26 69
e 26 2
e 26 21
e 26 77
e 26 58
e 35 21
e 35 32
e 35 76
e 35 44
e 35 71
e 35 52
e 35 66
e 35 61
e 35 31
e 35 42
e 35 15
e 35 4
e 84 66
e 84 47
e 84 39
e 84 61
e 84 80
e 84 90
e 84 15
e 84 21
e 84 13
e 84 57
e 84 8
e 84 79
e 84 41
e 84 3
e 84 71
e 55 80
e 55 88
e 55 33
e 55 14
e 55 31
e 55 39
e 55 15
e 55 86
e 55 58
e 55 13
e 55 5
e 55 46
e 80 58
e 80 20
e 80 2
e 80 52
e 80 8
e 80 76
e 80 77
e 80 86
e 80 30
e 80 14
e 34 57
e 34 42
e 34 69
e 34 8
e 34 46
e 34 64
e 34 45
e 34 87
e 34 17
e 34 86
e 34 81
e 34 90
e 34 58
e 34 76
e 34 53
e 57 12
e 57 2
e 57 21
e 57 13
e 57 62
e 57 66
e 57 38
e 57 33
e 57 70
e 57 79
e 57 47
e 57 50
e 57 4
e 53 51
e 53 79
e 53 88
e 53 38
e 53 47
e 53 31
e 53 20
e 53 86
e 53 62
e 52 14
e 52 9
e 52 12
e 52 76
e 52 38
e 52 47
e 3 14
e 3 23
e 3 9
e 3 17
e 3 87
e 3 64
e 3 45
e 3 38
e 3 5
e 3 71
e 3 88
e 44 61
e 44 79
e 44 83
e 44 69
e 44 5
e 44 38
e 44 87
e 44 30
e 44 71
e 44 14
e 44 31
e 44 9
e 44 23
e 61 20
e 61 79
e 61 23
e 61 69
e 61 2
e 61 21
e 61 32
e 61 41
e 76 41
e 76 33
e 76 14
e 76 9
e 76 50
e 76 64
e 66 14
e 66 50
e 66 87
e 66 32
e 66 4
e 66 5
e 66 58
e 66 41
e 14 47
e 14 69
e 14 50
e 14 17
e 14 62
e 14 39
e 4 43
e 4 38
e 4 83
e 4 50
e 4 22
e 4 8
e 4 58
e 4 39
e 43 2
e 43 62
e 43 21
e 43 71
e 43 22
e 43 70
e 43 33
e 43 51
e 43 50
e 43 39
e 79 58
e 79 20
e 79 87
e 79 45
e 79 86
e 79 64
e 79 62
e 90 39
e 90 12
e 90 81
e 90 86
e 90 71
e 90 5
e 90 77
e 90 69
e 90 15
e 90 17
e 33 88
e 33 51
e 33 46
e 33 41
e 33 5
e 33 8
e 88 58
e 88 69
e 88 31
e 88 39
e 88 42
e 88 83
e 88 81
e 88 62
e 88 30
e 8 13
e 8 17
e 8 87
e 8 64
e 8 9
e 13 77
e 13 30
e 13 20
e 13 83
e 13 69
e 13 32
e 13 2
e 13 22
e 58 51
e 58 38
e 58 77
e 58 62
e 58 39
e 58 45
e 50 41
e 50 17
e 50 42
e 50 2
e 50 62
e 41 46
e 41 64
e 41 30
e 41 45
e 41 87
e 41 77
e 41 81
e 41 71
e 46 30
e 46 22
e 46 62
e 46 71
e 46 21
e 46 83
e 30 45
e 30 31
e 30 77
e 30 86
e 30 23
e 64 5
e 64 47
e 64 9
e 64 20
e 64 39
e 64 17
e 64 12
e 22 23
e 22 12
e 22 81
e 23 42
e 23 12
e 23 15
e 23 77
e 23 71
e 77 70
e 77 32
e 77 69
e 77 12
e 77 15
e 32 62
e 32 38
e 32 15
e 32 83
e 32 51
e 32 21
e 32 45
e 38 45
e 38 81
e 38 71
e 38 51
e 83 45
e 83 70
e 17 51
e 17 15
e 17 45
e 17 62
e 17 39
e 45 70
e 45 12
e 45 87
e 45 62
e 71 5
e 71 20
e 39 47
e 39 87
e 39 20
e 39 15
e 70 86
e 70 9
e 70 20
e 70 2
e 51 81
e 51 2
e 86 5
e 86 20
e 86 31
e 86 12
e 86 42
e 81 5
e 81 87
e 81 20
e 12 42
e 87 47
e 87 15
e 47 20
e 47 2
e 47 42
e 69 9
e 69 2
e 69 21
e 42 20
e 42 9
e 42 2
e 9 20
e 20 21
e 31 15
e 31 62
e 31 2
e 31 21
e 21 62
e 21 5
e 21 15
e 5 2
